data;

param num_top:=6;

#nodes and edges of the physical network
param n := 10;

set E := (1,2) (1,3) (1,7) (2,4) (2,7) (3,5) (4,8) (5,6) (5,7) (6,7) (6,9) (7,8) (7,9) (8,10) (9,10) ;

#nodes and edges of the virtual networks
set Nl[1] := 8 1 10 6 ;
set Nl[2] := 8 10 3 6 ;
set Nl[3] := 5 2 10 3 ;
set Nl[4] := 9 4 5 3 ;
set Nl[5] := 1 4 8 9 ;
set Nl[6] := 9 8 5 3 ;

set El[1] := (1,8) (1,10) (6,10) (6,8) (1,6) (8,10) ;
set El[2] := (8,10) (3,10) (3,6) (6,8) (3,8) (6,10) ;
set El[3] := (2,5) (2,10) (3,10) (3,5) (5,10) (2,3) ;
set El[4] := (4,9) (4,5) (3,5) (3,9) (5,9) (3,4) ;
set El[5] := (1,4) (4,8) (8,9) (1,9) (1,8) (4,9) ;
set El[6] := (8,9) (5,8) (3,5) (3,9) (3,8) (5,9) ;
